D4 LOG: Running /Users/bryant/repos/d4/d4 ./mc2022_track1_047.cnf -dDNNF -out=./mc2022_track1_047.cnnf -drat=./mc2022_track1_047.drat
D4 LOG: Time limit 1000 seconds
c [33mBenchmark Information[0m
c Number of variables: 381
c Number of clauses: 6918
c Number of literals: 35229
c Preproc options: 
c
c Preproc time: 0.001147
c Integer mode 
c
c [1m[32mOption list [0m
c Caching: 1
c Reduce cache procedure level: 20
c Strategy for Reducing the cache: 0
c Cache representation: CL
c Part of the formula that is cached: NT
c Variable heuristic: VSADS
c Phase heuristic: TRUE
c Partitioning heuristic: CB + graph reduction + equivalence simplication
c
c ----------------------------------------------------------------------------------------------------------------------------------------------------------
c   #compile |       time |    #posHit |    #negHit |     #split |    Mem(MB) |     #nodes |     #edges | #equivCall | #Dec. Node | #paritioner |  limit dyn | 
c ----------------------------------------------------------------------------------------------------------------------------------------------------------
c top 5: 28 
c top 5: 28 -25 
c top 5: 28 -25 -207 
c top 5: 28 -25 -207 38 
c unitLits 1048577 4194308 Bytes
c freeVariables 1048577
c top 5: 28 -25 -207 
c top 5: 28 -25 -207 
c top 5: 28 -25 -207 
c top 5: 28 -25 207 
c top 5: 28 -25 207 194 
c top 5: 28 25 
c top 5: 28 25 31 
c top 5: 28 25 31 -204 
c top 5: 28 25 31 204 
c ----------------------------------------------------------------------------------------------------------------------------------------------------------
c
c [1m[31mStatistics [0m
c [33mCompilation Information[0m
c Number of compiled node: 167
c Number of split formula: 36
c Number of decision node: 83
c Number of node built on domain constraints: 0
c Number of decomposable AND nodes: 10
c Number of backbone calls: 0
c Number of partitioner calls: 1
c Average number of assigned literal to obtain decomposable AND nodes: 370.20/381
c Minimum number of assigned variable where a decomposable AND appeared: 369
c 
c [33mGraph Information[0m
c Number of nodes: 2999
c Number of edges: 3108
c 
c [1m[34mCache Information[0m
c Memory used: 563 MB
c
c Number of positive hit: 22
c Number of negative hit: 83
c Number of reduceCall: 0
c
c Final time: 0.234015
c 
s 0.000000
D4 LOG: Elapsed time = 0.277 seconds
D4 OUTCOME: normal
mc2022_track1_047. D4 NNF LOG: size ./mc2022_track1_047.cnnf 299 lines 60482 bytes
mc2022_track1_047. D4 DRAT LOG: size ./mc2022_track1_047.drat 21011 lines 1584470 bytes
DTRIM LOG: Running /Users/bryant/repos/drat-trim/drat-trim ./mc2022_track1_047.cnf ./mc2022_track1_047.drat -f -U
DTRIM LOG: Time limit 1000 seconds

c parsing input formula with 381 variables and 6918 clauses

c finished parsing

c start forward verification

c 6918 of 6918 clauses in core                            

c 7460 of 11808 lemmas in core using 193607 resolution steps

c 0 RAT lemmas in core; 0 redundant literals in core lemmas

c optimized proofs are not supported for forward checking

c VERIFIED derivation: all lemmas preserve satisfiability

c WARNING: no empty clause detected, this is not a refutation

s DERIVATION

c verification time: 0.131 seconds
DTRIM LOG: Elapsed time = 0.133 seconds
DTRIM OUTCOME: normal
CHECK LOG: Running /Users/bryant/repos/d4/certificator ./mc2022_track1_047.cnf ./mc2022_track1_047.cnnf ./mc2022_track1_047.drat
CHECK LOG: Time limit 1000 seconds
c CNF information
c Number of variables: 381
c Number of clauses: 6918
c
c DRAT information
c Number of drat clauses: 11807
c
c DDnnf parsing: 0.000
c DDnnf checked: 0.004
c
c Global time: 0.009
CHECK LOG: Elapsed time = 0.012 seconds
CHECK OUTCOME: normal
OVERALL LOG: Elapsed time = 0.427 seconds
OVERALL OUTCOME: normal
